# SSA + SDPD natural convection validation
# (advection + diffusion)


###################################################################################
# Lammps setup
###################################################################################
dimension          2
units              si
#                 |atom style| |num_tdpd_species| |num_ssa_species| |num_ssa_reactions| |Cd output (concentration, population)|
atom_style         ssa_tsdpd            1                 0                 0                     concentration


###################################################################################
# Temporal integration setup
###################################################################################
variable     dt equal 1e-5                #time step
variable     nt equal 10000000            #number of time steps
variable     freq_results equal 10000     #freq. writing results (file)
variable     freq_screen equal 10000      #freq. writing results (screen)



###################################################################################
# Domain setup
###################################################################################
boundary	   f f p 

variable	   Lxint equal 1.
variable           Lyint equal 1.

variable	   Nxint equal 51
variable	   Nyint equal 51


variable           deltax equal ${Lxint}/${Nxint}
variable           deltay equal ${Lyint}/${Nyint}

variable           Nxwall equal 6
variable           Nywall equal 6

variable           Lx equal ${Lxint}+${Nxwall}*2*${deltax}
variable           Ly equal ${Lyint}+${Nywall}*2*${deltay}
variable           Lz equal v_deltax           


variable	   cx equal 0
variable           cy equal 0
variable           cz equal ${Lz}/2

variable           radius_external equal 0.1  #external radius

variable           Npx equal ${Nxint}+2*${Nxwall}
variable           Npy equal ${Nyint}+2*${Nywall}
variable           Np equal  ${Npx}*${Npy}

variable           xmin equal -v_Lx/2
variable           xmax equal v_Lx/2
variable           ymin equal -v_Ly/2
variable           ymax equal v_Ly/2
variable           zmin equal 0 
variable           zmax equal v_Lz


variable           xminint equal -v_Lxint/2
variable           xmaxint equal v_Lxint/2
variable           yminint equal -v_Lyint/2
variable           ymaxint equal v_Lyint/2
variable           zminint equal 0 
variable           zmaxint equal ${Lz}

variable	   vtot equal v_Lx*v_Ly
variable	   mtot equal v_vtot
variable	   mi equal v_vtot/v_Np

lattice		   sq ${deltax}


print "mass per particle = ${mi}"

###################################################################################
# Create atoms and regions
###################################################################################

# create simulation domain
region             domain block ${xmin} ${xmax} ${ymin} ${ymax} ${zmin} ${zmax} units box
create_box	   2 domain


# create fluid particles
region             fluid_region block  ${xminint} ${xmaxint} ${yminint} ${ymaxint} EDGE EDGE units box 
create_atoms       1 region fluid_region
group              fluid region fluid_region


# create cylinder at the center of the domain
region             sphere_region sphere ${cx} ${cy} ${cz} ${radius_external} units box
delete_atoms	   region sphere_region
create_atoms       2 region sphere_region
#create_atoms      2 random 1000 5813513 sphere_region
group              sphere region sphere_region


# create walls
region             bottom_wall_region block EDGE EDGE ${ymin} ${yminint} EDGE EDGE units box
delete_atoms	   region bottom_wall_region
create_atoms       2 region bottom_wall_region
group              bottom_wall region bottom_wall_region

region             top_wall_region block EDGE EDGE ${ymaxint} ${ymax} EDGE EDGE units box
delete_atoms	   region top_wall_region
create_atoms       2 region top_wall_region
group              top_wall region top_wall_region

region             left_wall_region block ${xmin} ${xminint} EDGE EDGE EDGE EDGE units box
delete_atoms	   region left_wall_region
create_atoms       2 region left_wall_region
group              left_wall region left_wall_region

region             right_wall_region block ${xmaxint} ${xmax} EDGE EDGE EDGE EDGE units box
delete_atoms	   region right_wall_region
create_atoms       2 region right_wall_region
group              right_wall region right_wall_region



# set initial values
mass		   * ${mi}

set	  	   group all ssa_tsdpd/rho 1
set	  	   group all ssa_tsdpd/e 0.1


#variable	   h equal "2.2*v_delta"
#variable	   hc equal "2.2*v_delta"
variable	   h equal "3*v_deltax"
variable	   hc equal "3*v_deltax"

pair_style	   ssa_tsdpd/wt
#                  | rho0 | |  c0  | |       eta    |   |   h   |   |   cutc   | |      kappa[0]      |   |     kappa_ssa[0]      |   
pair_coeff     * *    1      500         0.0083666         ${h}         ${hc}        0.011952286             #   0.011952286
#pair_coeff     * *    1     100         0.0265           ${h}         ${hc}        0.0038             #   0.011952286




###################################################################################
# Initial velocity and concentration fields
###################################################################################
velocity         sphere set 0.0 0.0 0.0   #set velocity of particles in group sphere
#fix spherewall2 sphere setforce 0.0 0.0 0.0                    
fix              fluid sphere indent 1e8 sphere ${cx} ${cy} ${cz} ${radius_external} units box 


# Velocity
#variable        U0 equal 0.0020875                 #(label, initial velocity)
#velocity        fluid set ${U0} 0.0 0.0 units box   #(group-ID, set vx vy vz)


#Concentration (note: initializing concentrations as 0 is optional; it will be 0 by default)
               #|group| | group-ID| |     style    | | species rank| | value | 
set             group        all       ssa_tsdpd/C            0          0.0
set             group        sphere    ssa_tsdpd/C            0          1.0

###################################################################################
# Info on screen
###################################################################################
thermo          ${freq_screen}
thermo_style custom step dt press temp etotal


###################################################################################
# Enforce boundary conditions
###################################################################################
#   | label |   | group-ID | |        style      |  |  rank coordinate (x=0, y=1, z=2)  | | coord_min | | coord_max |
fix    BCy           fluid       ssa_tsdpd/reflect                  1                      ${yminint}    ${ymaxint}
fix    BCx           fluid       ssa_tsdpd/reflect                  0                      ${xminint}    ${xmaxint}



###################################################################################
# Integration of particles' position, velocity, concentration
###################################################################################
# Integrator    |    label    |    |  group  |  |     style (stationary or verlet)    | 
fix              integration1         fluid               ssa_tsdpd/verlet

#compute density
compute         rhoatom all ssa_tsdpd/rho/atom



# variable time step:
#                  |id|  |group|  |style|  |freq| |min dt|  |max dt|   |max dx of particle in each time step| 
#fix                dtfix    all   dt/reset  1      1e-5      ${dt}      0.00001                                   units box



###################################################################################
# Forcing (tsdpd species)
###################################################################################
#   |          label          |   | group-ID |  |        style      |    | forcing type  |  | frequency |  |  species rank  | | geometry | |  centerX  | | centerY | | length-x |  | length-y |   |  value  |
#fix  forcing_left_upper_tsdpd          all        ssa_tsdpd/forcing           tsdpd                1                 0          rectangle      5e-6        12.5e-6       5e-6        12.5e-6          0
#fix  forcing_left_lower_tsdpd          all        ssa_tsdpd/forcing           tsdpd                1                 0          rectangle      5e-6        37.5e-6       5e-6        12.5e-6          1
#fix  forcing_right_tsdpd               all        ssa_tsdpd/forcing           tsdpd                1                 0          rectangle      195e-6      25.0e-6       5e-6        25.0e-6          0


###################################################################################
# Forcing (ssa species)
###################################################################################
#   |          label         |   | group-ID |  |       style       |    |  forcing type  |  | frequency |  |  species rank  | | geometry | | centerX | | centerY | | length-x |  | length-y |   | value |
#fix  forcing_left_upper_ssa          all         ssa_tsdpd/forcing             ssa                 1                 0          rectangle      5e-6        12.5e-6       5e-6        12.5e-6          0
#fix  forcing_left_lower_ssa          all         ssa_tsdpd/forcing             ssa                 1                 0          rectangle      5e-6        37.5e-6       5e-6        12.5e-6          1000
#fix  forcing_right_ssa               all         ssa_tsdpd/forcing             ssa                 1                 0          rectangle      195e-6      25.0e-6       5e-6        25.0e-6          0



###################################################################################
# Reactions (tsdpd species)
###################################################################################
#Reaction C_[0] + C_[1] -> C_[2]
#    | label | | group | |              style             |                | rxn_rate | | #reactants | | reactant1 | | reactant2 | | #products | | product1 |
#fix     rxn1      all      ssa_tsdpd/chem_rxn_mass_action                       0.1            2             0             1             1            2



###################################################################################
# Reactions (ssa species)
###################################################################################
#Reaction Cd_[0] + Cd_[1] -> Cd_[2]

#    | label | | group | |              style             |  | rnx_rank |  | rxn_rate | | #reactants | | reactant1 | | reactant2 | | #products | | product1 |
#fix    rxn2       all      ssa_tsdpd/ssa_rxn_mass_action           0            0.1            2              0             1            1            2



###################################################################################
# Output results
###################################################################################
#              | label |  |group-ID|  |    style    |  |     frequency      |  |  filenames | |              variables to print            |
dump             dmpvtk       all      ssa_tsdpd/vtk      ${freq_results}          dump*.vtk      id type vx vy vz C_[0] c_rhoatom 


###################################################################################
# Run simulation
###################################################################################
variable        skin equal 0.3*${h}
neighbor        ${skin} bin
timestep        ${dt}
run             ${nt}

