# Example of 1D pure diffusion (SSA vs TSDPD)
# 

###################################################################################
# Lammps setup
###################################################################################
dimension          1
units              si
#                 |atom style| |num_tdpd_species| |num_ssa_species| |num_ssa_reactions| |Cd output (concentration, population)|
atom_style         ssa_tsdpd            1                 1                 0                     concentration


###################################################################################
# Temporal integration setup
###################################################################################
variable     dt equal 1e-2             #time step
variable     nt equal 10000            #number of time steps
variable     freq_results equal 100    #freq. writing results (file)
variable     freq_screen equal 100     #freq. writing results (screen)



###################################################################################
# Domain setup
###################################################################################
boundary	   f f p 
variable	   delta equal "1/64"    #space between particles
variable	   Lx equal "65/64"
variable           Ly equal v_delta
variable 	   Lz equal v_delta

lattice		   sq ${delta} 
region             box block 0 ${Lx} 0 ${Ly} 0 ${delta} units box
create_box         1 box

###################################################################################
# Create atoms and regions
###################################################################################
create_atoms	   1 box
mass		   1 15.6249999999999822

variable	   h equal 2*${delta}
pair_style	   ssa_tsdpd/wc
#                     | rho0 | | c0 | |  eta  | |   h   |  | cutc | |  kappa TSDPD | | kappa SSA | 
pair_coeff	   * *  1000     0.1     1e-3      ${h}      ${h}         1e-2            1e-2

set	  	   group all ssa_tsdpd/rho 1000
set	  	   group all ssa_tsdpd/e 1.0


#Right wall
region             right_wall_region block 0.99 EDGE EDGE EDGE EDGE EDGE units box
group              right_wall region right_wall_region
set                group right_wall ssa_tsdpd/C  0 0
set                group right_wall ssa_tsdpd/Cd 0 0

#Left wall
region             left_wall_region block 0 0.01 EDGE EDGE EDGE EDGE units box
group              left_wall region left_wall_region
set                group left_wall ssa_tsdpd/C  0 64000
set                group left_wall ssa_tsdpd/Cd 0 1000


group              flow subtract all right_wall left_wall


###################################################################################
# Info on screen
###################################################################################
thermo          ${freq_screen}



###################################################################################
# Forcing (tsdpd species)
###################################################################################
#   |          label          |   | group-ID |  |        style      |    | forcing type  |  | frequency |  |  species rank  | | geometry | | centerX | | centerY | | length-x |  | length-y |   |  value  |
#fix  forcing_left_wall_tsdpd       left_wall      ssa_tsdpd/forcing           tsdpd                1                 0           rectangle      0.0         0          0.02          0.1             64000
#fix  forcing_right_wall_tsdpd      right_wall     ssa_tsdpd/forcing           tsdpd                1                 0           rectangle      1.0         0          0.02          0.1             0



###################################################################################
# Forcing (ssa species)
###################################################################################
#   |          label         |   | group-ID |  |       style       |    |  forcing type  |  | frequency |  |  species rank  | | geometry | | centerX | | centerY | | length-x |  | length-y |   | value |
#fix  forcing_left_wall_ssa         left_wall     ssa_tsdpd/forcing             ssa                1                  0           rectangle      0.0         0          0.02          0.1            1000
#fix  forcing_right_wall_ssa        right_wall    ssa_tsdpd/forcing             ssa                1                  0           rectangle      1.0         0          0.02          0.1            0





###################################################################################
# Integration of particles' position, velocity, concentration
###################################################################################
# Integrator    |    label    |    |  group  |  |     style (stationary or verlet)    | 
fix              integration1         flow               ssa_tsdpd/stationary



###################################################################################
# Output results
###################################################################################
#              | label |  |group-ID|  |    style    |  |     frequency      |  |  filenames | |      variables to print         |
dump             dmpvtk       all      ssa_tsdpd/vtk      ${freq_results}          dump*.vtk      id type vx vy vz C_[0] Cd_[0] 
dump_modify    dmpvtk sort id




###################################################################################
# Run simulation
###################################################################################
variable        skin equal 0.5*${h}
neighbor        ${skin} bin
timestep        ${dt}
run             ${nt}

