# SSA + SDPD natural convection validation
# (advection + diffusion)


###################################################################################
# Lammps setup
###################################################################################
dimension          2
units              si
#                 |atom style| |num_tdpd_species| |num_ssa_species| |num_ssa_reactions| |Cd output (concentration, population)|
atom_style         ssa_tsdpd            1                 1                 0                     concentration


###################################################################################
# Temporal integration setup
###################################################################################
variable     dt equal 1e-4                #time step
variable     nt equal 5000000             #number of time steps
variable     freq_results equal 2000      #freq. writing results (file)
variable     freq_screen equal 1000       #freq. writing results (screen)



###################################################################################
# Domain setup
###################################################################################
boundary	   f f p 
variable           delta equal "1/101"    #space between particles
lattice		   sq ${delta}                   
variable           Lx equal 1.2               #length x-dir
variable           Ly equal 1.2               #length y-dir
variable           Lz equal v_delta           #length z-dir

variable	   cx equal 0.5
variable           cy equal 0.5
variable           cz equal ${Lz}/2

variable           radius_external equal 0.1  #external radius



###################################################################################
# Create atoms and regions
###################################################################################

# create simulation domain
region             domain block -0.1 1.1 -0.1 1.1 0 ${Lz} units box
create_box	   2 domain


# create fluid particles
region             fluid_region block  0 1 0 1 EDGE EDGE units box 
create_atoms       1 region fluid_region
group              fluid region fluid_region


# create cylinder at the center of the domain
region             sphere_region sphere ${cx} ${cy} ${cz} ${radius_external} units box
delete_atoms	   region sphere_region
create_atoms       2 region sphere_region
#create_atoms      2 random 100 5813513 sphere_region
group              sphere region sphere_region


# create walls
region             bottom_wall_region block EDGE EDGE -0.1 0 EDGE EDGE units box
create_atoms       2 region bottom_wall_region
group              bottom_wall region bottom_wall_region

region             top_wall_region block EDGE EDGE 1.0 1.1 EDGE EDGE units box
create_atoms       2 region top_wall_region
group              top_wall region top_wall_region

region             left_wall_region block -0.1 0.0 EDGE EDGE EDGE EDGE units box
create_atoms       2 region left_wall_region
group              left_wall region left_wall_region

region             right_wall_region block 1.0 1.1 EDGE EDGE EDGE EDGE units box
create_atoms       2 region right_wall_region
group              right_wall region right_wall_region



# set initial values
mass		   * 0.0000961168781238

set	  	   group all ssa_tsdpd/rho 1
set	  	   group all ssa_tsdpd/e 0.1


variable	   h equal "2*v_delta"
pair_style	   ssa_tsdpd/wt
#                  | rho0 | |  c0  | |  eta  | |   h   |  |   cutc   | | kappa[0] |   | kappa_ssa[0] |   
pair_coeff      * *  1        100      0.0084    ${h}        ${h}        0.0119           0.0119


###################################################################################
# Initial velocity and concentration fields
###################################################################################
velocity         sphere set 0.0 0.0 0.0   #set velocity of particles in group sphere
#fix spherewall2 sphere setforce 0.0 0.0 0.0                    
#fix             spherewall flow indent 1e8 sphere ${cx} ${cy} ${cz} ${radius_external} units box  #use indent force in group sphere (particles do not move)


# Velocity
#variable        U0 equal 0.0020875                 #(label, initial velocity)
#velocity        fluid set ${U0} 0.0 0.0 units box   #(group-ID, set vx vy vz)


#Concentration (note: initializing concentrations as 0 is optional; it will be 0 by default)
               #|group| | group-ID| |     style    | | species rank| | value | 
set             group        all       ssa_tsdpd/C            0          0.0
set             group        sphere    ssa_tsdpd/C            0          1.0
set             group        sphere    ssa_tsdpd/Cd           0          100

###################################################################################
# Info on screen
###################################################################################
thermo          ${freq_screen}
thermo_style custom step dt press temp etotal


###################################################################################
# Enforce boundary conditions
###################################################################################
#   | label |   | group-ID | |        style      |  | species rank coordinate (x=0, y=1, z=2)| | coord_min | | coord_max |
fix    BCy           fluid       ssa_tsdpd/reflect                      1                              0.0         1.0
fix    BCx           fluid       ssa_tsdpd/reflect                      0                              0.0         1.0



###################################################################################
# Integration of particles' position, velocity, concentration
###################################################################################
# Integrator    |    label    |    |  group  |  |     style (stationary or verlet)    | 
fix              integration1         fluid               ssa_tsdpd/verlet

#compute density
compute         rhoatom all ssa_tsdpd/rho/atom



# variable time step:
#                  |id|  |group|  |style|  |freq| |min dt|  |max dt|   |max dx of particle in each time step| 
fix                dtfix    all   dt/reset  1      1e-5      ${dt}      0.00001                                   units box



###################################################################################
# Forcing (tsdpd species)
###################################################################################
#   |          label          |   | group-ID |  |        style      |    | forcing type  |  | frequency |  |  species rank  | | geometry | |  centerX  | | centerY | | length-x |  | length-y |   |  value  |
#fix  forcing_left_upper_tsdpd          all        ssa_tsdpd/forcing           tsdpd                1                 0          rectangle      5e-6        12.5e-6       5e-6        12.5e-6          0
#fix  forcing_left_lower_tsdpd          all        ssa_tsdpd/forcing           tsdpd                1                 0          rectangle      5e-6        37.5e-6       5e-6        12.5e-6          1
#fix  forcing_right_tsdpd               all        ssa_tsdpd/forcing           tsdpd                1                 0          rectangle      195e-6      25.0e-6       5e-6        25.0e-6          0


###################################################################################
# Forcing (ssa species)
###################################################################################
#   |          label         |   | group-ID |  |       style       |    |  forcing type  |  | frequency |  |  species rank  | | geometry | | centerX | | centerY | | length-x |  | length-y |   | value |
#fix  forcing_left_upper_ssa          all         ssa_tsdpd/forcing             ssa                 1                 0          rectangle      5e-6        12.5e-6       5e-6        12.5e-6          0
#fix  forcing_left_lower_ssa          all         ssa_tsdpd/forcing             ssa                 1                 0          rectangle      5e-6        37.5e-6       5e-6        12.5e-6          1000
#fix  forcing_right_ssa               all         ssa_tsdpd/forcing             ssa                 1                 0          rectangle      195e-6      25.0e-6       5e-6        25.0e-6          0



###################################################################################
# Reactions (tsdpd species)
###################################################################################
#Reaction C_[0] + C_[1] -> C_[2]
#    | label | | group | |              style             |                | rxn_rate | | #reactants | | reactant1 | | reactant2 | | #products | | product1 |
#fix     rxn1      all      ssa_tsdpd/chem_rxn_mass_action                       0.1            2             0             1             1            2



###################################################################################
# Reactions (ssa species)
###################################################################################
#Reaction Cd_[0] + Cd_[1] -> Cd_[2]

#    | label | | group | |              style             |  | rnx_rank |  | rxn_rate | | #reactants | | reactant1 | | reactant2 | | #products | | product1 |
#fix    rxn2       all      ssa_tsdpd/ssa_rxn_mass_action           0            0.1            2              0             1            1            2



###################################################################################
# Output results
###################################################################################
#              | label |  |group-ID|  |    style    |  |     frequency      |  |  filenames | |              variables to print            |
dump             dmpvtk       all      ssa_tsdpd/vtk      ${freq_results}          dump*.vtk      id type vx vy vz C_[0] Cd_[0] c_rhoatom 


###################################################################################
# Run simulation
###################################################################################
variable        skin equal 0.3*${h}
neighbor        ${skin} bin
timestep        ${dt}
run             ${nt}

